0 1997
1 1894
2 1754
3 1720
4 1652
5 1634
6 1596
7 1511
8 1454
9 1454
10 1382
11 1320
12 1299
13 1280
14 1254
15 1215
16 1203
17 1171
18 1171
19 1140
20 1122
21 1122
22 1110
23 1105
24 1093
25 1079
26 1079
27 1059
28 1055
29 1049
30 1022
31 1022
32 1018
33 1000
34 1000
35 998
36 995
37 961
38 961
39 961
40 959
41 959
42 957
43 955
44 953
45 953
46 952
47 950
48 950
49 950
50 950
51 950
52 950
53 950
54 948
55 948
56 948
57 939
58 939
59 939
60 939
61 934
62 914
63 914
64 909
65 909
66 909
67 909
68 909
69 905
70 905
71 905
72 905
73 905
74 905
75 905
76 905
77 905
78 905
79 905
80 905
81 905
82 905
83 905
84 905
85 905
86 905
87 905
88 905
89 905
90 905
91 905
92 905
93 905
94 905
95 905
96 905
97 905
98 905
99 905
100 905
101 905
102 905
103 905
104 905
105 905
106 905
107 905
108 905
109 905
110 905
111 905
112 905
113 905
114 905
115 905
116 905
117 905
118 905
119 905
120 905
121 905
122 905
123 905
124 905
125 905
126 905
127 905
128 905
129 905
130 905
131 905
132 905
133 905
134 905
135 905
136 905
137 905
138 905
139 905
140 905
141 905
142 905
143 905
144 905
145 905
146 905
147 905
148 905
149 905
150 905
151 905
152 905
153 905
154 905
155 905
156 905
157 905
158 905
159 905
160 905
161 905
162 905
163 905
164 905
165 905
166 905
167 905
168 905
169 905
170 905
171 905
172 905
173 905
174 905
175 905
176 905
177 905
178 905
179 905
180 905
181 905
182 905
183 905
184 905
185 905
186 905
187 905
188 905
189 905
190 905
191 905
192 905
193 905
194 905
195 905
196 905
197 905
198 905
199 905
200 905
201 905
202 905
203 905
204 905
205 905
206 905
207 905
208 905
209 905
210 905
211 905
212 905
213 905
214 905
215 905
216 905
217 905
218 905
219 905
220 905
221 905
222 905
223 905
224 905
225 905
226 905
227 905
228 905
229 905
230 905
231 905
232 905
233 905
234 905
235 905
236 905
237 905
238 905
239 905
240 905
241 905
242 905
243 905
244 905
245 905
246 905
247 905
248 905
249 905
250 905
251 905
252 905
253 905
254 905
255 905
256 905
257 905
258 905
259 905
260 905
261 905
262 905
263 905
264 905
265 905
266 905
267 905
268 905
269 905
270 905
271 905
272 905
273 905
274 905
275 905
276 905
277 905
278 905
279 905
280 905
281 905
282 905
283 905
284 905
285 905
286 905
287 905
288 905
289 905
290 905
291 905
292 905
293 905
294 905
295 905
296 905
297 905
298 905
299 905
300 905
301 905
302 905
303 905
304 905
305 905
306 905
307 905
308 905
309 905
310 905
311 905
312 905
313 905
314 905
315 905
316 905
317 905
318 905
319 905
320 905
321 905
322 905
323 905
324 905
325 905
326 905
327 905
328 905
329 905
330 905
331 905
332 905
333 905
334 905
335 905
336 905
337 905
338 905
339 905
340 905
341 905
342 905
343 905
344 905
345 905
346 905
347 905
348 905
349 905
350 905
351 905
352 905
353 905
354 905
355 905
356 905
357 905
358 905
359 905
360 905
361 905
362 905
363 905
364 905
365 905
366 905
367 905
368 905
369 905
370 905
371 905
372 905
373 905
374 905
375 905
376 905
377 905
378 905
379 905
380 905
381 905
382 905
383 905
384 905
385 905
386 905
387 905
388 905
389 905
390 905
391 905
392 905
393 905
394 905
395 905
396 905
397 905
398 905
399 905
400 905
401 905
402 905
403 905
404 905
405 905
406 905
407 905
408 905
409 905
410 905
411 905
412 905
413 905
414 905
415 905
416 905
417 905
418 905
419 905
420 905
421 905
422 905
423 905
424 905
425 905
426 905
427 905
428 905
429 905
430 905
431 905
432 905
433 905
434 905
435 905
436 905
437 905
438 905
439 905
440 905
441 905
442 905
443 905
444 905
445 905
446 905
447 905
448 905
449 905
450 905
451 905
452 905
453 905
454 905
455 905
456 905
457 905
458 905
459 905
460 905
461 905
462 905
463 905
464 905
465 905
466 905
467 905
468 905
469 905
470 905
471 905
472 905
473 905
474 905
475 905
476 905
477 905
478 905
479 905
480 905
481 905
482 905
483 905
484 905
485 905
486 905
487 905
488 905
489 905
490 905
491 905
492 905
493 905
494 905
495 905
496 905
497 905
498 905
499 905
500 905
501 905
502 905
503 905
504 905
505 905
506 905
507 905
508 905
509 905
510 905
511 905
512 905
513 905
514 905
515 905
516 905
517 905
518 905
519 905
520 905
521 905
522 905
523 905
524 905
525 905
526 905
527 905
528 905
529 905
530 905
531 905
532 905
533 905
534 905
535 905
536 905
537 905
538 905
539 905
540 905
541 905
542 905
543 905
544 905
545 905
546 905
547 905
548 905
549 905
550 905
551 905
552 905
553 905
554 905
555 905
556 905
557 905
558 905
559 905
560 905
561 905
562 905
563 905
564 905
565 905
566 905
567 905
568 905
569 905
570 905
571 905
572 905
573 905
574 905
575 905
576 905
577 905
578 905
579 905
580 905
581 905
582 905
583 905
584 905
585 905
586 905
587 905
588 905
589 905
590 905
591 905
592 905
593 905
594 905
595 905
596 905
597 905
598 905
599 905
600 905
601 905
602 905
603 905
604 905
605 905
606 905
607 905
608 905
609 905
610 905
611 905
612 905
613 905
614 905
615 905
616 905
617 905
618 905
619 905
620 905
621 905
622 905
623 905
624 905
625 905
626 905
627 905
628 905
629 905
630 905
631 905
632 905
633 905
634 905
635 905
636 905
637 905
638 905
639 905
640 905
641 905
642 905
643 905
644 905
645 905
646 905
647 905
648 905
649 905
650 905
651 905
652 905
653 905
654 905
655 905
656 905
657 905
658 905
659 905
660 905
661 905
662 905
663 905
664 905
665 905
666 905
667 905
668 905
669 905
670 905
671 905
672 905
673 905
674 905
675 905
676 905
677 905
678 905
679 905
680 905
681 905
682 905
683 905
684 905
685 905
686 905
687 905
688 905
689 905
690 905
691 905
692 905
693 905
694 905
695 905
696 905
697 905
698 905
699 905
700 905
701 905
702 905
703 905
704 905
705 905
706 905
707 905
708 905
709 905
710 905
711 905
712 905
713 905
714 905
715 905
716 905
717 905
718 905
719 905
720 905
721 905
722 905
723 905
724 905
725 905
726 905
727 905
728 905
729 905
730 905
731 905
732 905
733 905
734 905
735 905
736 905
737 905
738 905
739 905
740 905
741 905
742 905
743 905
744 905
745 905
746 905
747 905
748 905
749 905
750 905
751 905
752 905
753 905
754 905
755 905
756 905
757 905
758 905
759 905
760 905
761 905
762 905
763 905
764 905
765 905
766 905
767 905
768 905
769 905
770 905
771 905
772 905
773 905
774 905
775 905
776 905
777 905
778 905
779 905
780 905
781 905
782 905
783 905
784 905
785 905
786 905
787 905
788 905
789 905
790 905
791 905
792 905
793 905
794 905
795 905
796 905
797 905
798 905
799 905
800 905
801 905
802 905
803 905
804 905
805 905
806 905
807 905
808 905
809 905
810 905
811 905
812 905
813 905
814 905
815 905
816 905
817 905
818 905
819 905
820 905
821 905
822 905
823 905
824 905
825 905
826 905
827 905
828 905
829 905
830 905
831 905
832 905
833 905
834 905
835 905
836 905
837 905
838 905
839 905
840 905
841 905
842 905
843 905
844 905
845 905
846 905
847 905
848 905
849 905
850 905
851 905
852 905
853 905
854 905
855 905
856 905
857 905
858 905
859 905
860 905
861 905
862 905
863 905
864 905
865 905
866 905
867 905
868 905
869 905
870 905
871 905
872 905
873 905
874 905
875 905
876 905
877 905
878 905
879 905
880 905
881 905
882 905
883 905
884 905
885 905
886 905
887 905
888 905
889 905
890 905
891 905
892 905
893 905
894 905
895 905
896 905
897 905
898 905
899 905
900 905
901 905
902 905
903 905
904 905
905 905
906 905
907 905
908 905
909 905
910 905
911 905
912 905
913 905
914 905
915 905
916 905
917 905
918 905
919 905
920 905
921 905
922 905
923 905
924 905
925 905
926 905
927 905
928 905
929 905
930 905
931 905
932 905
933 905
934 905
935 905
936 905
937 905
938 905
939 905
940 905
941 905
942 905
943 905
944 905
945 905
946 905
947 905
948 905
949 905
950 905
951 905
952 905
953 905
954 905
955 905
956 905
957 905
958 905
959 905
960 905
961 905
962 905
963 905
964 905
965 905
966 905
967 905
968 905
969 905
970 905
971 905
972 905
973 905
974 905
975 905
976 905
977 905
978 905
979 905
980 905
981 905
982 905
983 905
984 905
985 905
986 905
987 905
988 905
989 905
990 905
991 905
992 905
993 905
994 905
995 905
996 905
997 905
998 905
999 905
Best: [[31,17,13],
       [2,20,18,14,8,27],
       [25,23,10,9,29,24,7],
       [21,6,26,11,16,30,28],
       [15,19,12,5,4,3,32,22]], fitness: 905
